Diamond
1.0
3.46  0.00  0.00
0.00  3.46  0.00
0.00  0.00  3.46
C
8
Direct
0.00 0.00 0.00
0.50 0.50 0.00
0.00 0.50 0.50
0.50 0.00 0.50
0.25 0.25 0.25
0.75 0.75 0.25
0.25 0.75 0.75
0.75 0.25 0.75
