Fe4 O6
1.0
        5.4950318336         0.0000000000         0.0000000000
        3.1238430194         4.5207277781         0.0000000000
        3.1238430194         1.6385020264         4.2133467402
   Fe    O
    4    6
Direct
     0.854174972         0.854174972         0.854174972
     0.145824999         0.145824999         0.145824999
     0.645825028         0.645825028         0.645825028
     0.354175001         0.354175001         0.354175001
     0.445122510         0.054877501         0.750000000
     0.554877520         0.945122480         0.250000000
     0.054877501         0.750000000         0.445122510
     0.945122480         0.250000000         0.554877520
     0.750000000         0.445122510         0.054877501
     0.250000000         0.554877520         0.945122480
